c XOR 2 substituted formula
c
c Pebbling formula of:
c
c Generated with `cnfgen` (C) Massimo Lauria <lauria@kth.se>
c https://github.com/MassimoLauria/cnfgen.git
p cnf 22 44
1 2 0
-1 -2 0
1 -2 3 4 0
1 -2 -3 -4 0
-1 2 3 4 0
-1 2 -3 -4 0
3 -4 5 6 0
3 -4 -5 -6 0
-3 4 5 6 0
-3 4 -5 -6 0
5 -6 7 8 0
5 -6 -7 -8 0
-5 6 7 8 0
-5 6 -7 -8 0
7 -8 9 10 0
7 -8 -9 -10 0
-7 8 9 10 0
-7 8 -9 -10 0
9 -10 11 12 0
9 -10 -11 -12 0
-9 10 11 12 0
-9 10 -11 -12 0
11 -12 13 14 0
11 -12 -13 -14 0
-11 12 13 14 0
-11 12 -13 -14 0
13 -14 15 16 0
13 -14 -15 -16 0
-13 14 15 16 0
-13 14 -15 -16 0
15 -16 17 18 0
15 -16 -17 -18 0
-15 16 17 18 0
-15 16 -17 -18 0
17 -18 19 20 0
17 -18 -19 -20 0
-17 18 19 20 0
-17 18 -19 -20 0
19 -20 21 22 0
19 -20 -21 -22 0
-19 20 21 22 0
-19 20 -21 -22 0
21 -22 0
-21 22 0
